 $contrl coord=unique icharg=0 ispher=1 mult=1 runtyp=energy 
         scftyp=mcscf units=bohr  $end
 $system memddi=100 mwords=200  $end
 $basis  gbasis=cct  $end
 $guess  guess=moread norb=44 prtmo=.true.  $end
 $det    group=c1 nact=9 ncore=0 nels=6 prttol=0.001  $end
 $mcscf  fullnr=.true.  $end
 $DATA
A molecule.
C1
B 5.00       0.00000000       0.00000000       0.00000000
H 1.00       2.36223900       0.00000000       0.00000000
 $END
 $VEC
 1  1 9.80701562E-01 7.22607274E-04 3.74647455E-02 3.31302419E-03 2.91357706E-03
 1  2 0.00000000E+00 0.00000000E+00-6.81677625E-04 0.00000000E+00 0.00000000E+00
 1  3 9.32315144E-04 0.00000000E+00 0.00000000E+00 9.58687781E-04-4.79343891E-04
 1  4-4.79343891E-04 0.00000000E+00 0.00000000E+00 0.00000000E+00 2.48866664E-04
 1  5-1.24433332E-04-1.24433332E-04 0.00000000E+00 0.00000000E+00 0.00000000E+00
 1  6 2.37438738E-04 0.00000000E+00 0.00000000E+00 0.00000000E+00 0.00000000E+00
 1  7-1.59278747E-04 0.00000000E+00-1.59278747E-04 0.00000000E+00 0.00000000E+00
 1  8 4.07904024E-04-8.15699676E-05-1.54881725E-03 8.38188362E-05 0.00000000E+00
 1  9 0.00000000E+00 9.23462361E-04 0.00000000E+00 0.00000000E+00-4.67025770E-04
 1 10 2.33512885E-04 2.33512885E-04 0.00000000E+00 0.00000000E+00 0.00000000E+00
 2  1-8.41701869E-03 4.14291494E-01 8.04600621E-02 1.59418748E-01 1.09052035E-01
 2  2 0.00000000E+00 0.00000000E+00 1.41357080E-01 0.00000000E+00 0.00000000E+00
 2  3 1.12423236E-02 0.00000000E+00 0.00000000E+00 2.49761648E-02-1.24880824E-02
 2  4-1.24880824E-02 0.00000000E+00 0.00000000E+00 0.00000000E+00 2.87240896E-02
 2  5-1.43620448E-02-1.43620448E-02 0.00000000E+00 0.00000000E+00 0.00000000E+00
 2  6 7.30702353E-03 0.00000000E+00 0.00000000E+00 0.00000000E+00 0.00000000E+00
 2  7-4.90170040E-03 0.00000000E+00-4.90170040E-03 0.00000000E+00 0.00000000E+00
 2  8 1.58930962E-01 2.35609066E-01 1.11603172E-01-1.07977369E-02 0.00000000E+00
 2  9 0.00000000E+00-1.31191329E-02 0.00000000E+00 0.00000000E+00 2.11915384E-03
 2 10-1.05957692E-03-1.05957692E-03 0.00000000E+00 0.00000000E+00 0.00000000E+00
 3  1 3.99096797E-04 3.37905970E-01 7.51708074E-02 4.38960103E-01-2.25455447E-01
 3  2 0.00000000E+00 0.00000000E+00-3.03865491E-01 0.00000000E+00 0.00000000E+00
 3  3-1.65268041E-01 0.00000000E+00 0.00000000E+00-2.21451237E-02 1.10725619E-02
 3  4 1.10725619E-02 0.00000000E+00 0.00000000E+00 0.00000000E+00-4.00241364E-02
 3  5 2.00120682E-02 2.00120682E-02 0.00000000E+00 0.00000000E+00 0.00000000E+00
 3  6-3.06639650E-04 0.00000000E+00 0.00000000E+00 0.00000000E+00 0.00000000E+00
 3  7 2.05700130E-04 0.00000000E+00 2.05700130E-04 0.00000000E+00 0.00000000E+00
 3  8-1.00982047E-01-1.69442243E-01-1.80559146E-01 3.16620183E-03 0.00000000E+00
 3  9 0.00000000E+00 2.85606071E-03 0.00000000E+00 0.00000000E+00 4.90115763E-04
 3 10-2.45057882E-04-2.45057882E-04 0.00000000E+00 0.00000000E+00 0.00000000E+00
 4  1 0.00000000E+00 0.00000000E+00 0.00000000E+00 0.00000000E+00 0.00000000E+00
 4  2 4.24012394E-02 2.12770924E-01 0.00000000E+00 4.75300813E-02 2.38507634E-01
 4  3 0.00000000E+00 1.39628129E-01 7.00658902E-01 0.00000000E+00 0.00000000E+00
 4  4 0.00000000E+00 4.87743684E-04 2.44751511E-03 0.00000000E+00 0.00000000E+00
 4  5 0.00000000E+00 0.00000000E+00 8.01572423E-03 4.02231886E-02 0.00000000E+00
 4  6 0.00000000E+00 1.93102560E-04 9.68995495E-04-3.45432360E-04-1.73339184E-03
 4  7 0.00000000E+00 4.33347959E-04 0.00000000E+00 8.63580900E-05 0.00000000E+00
 4  8 0.00000000E+00 0.00000000E+00 0.00000000E+00 0.00000000E+00 1.52927189E-03
 4  9 7.67394060E-03 0.00000000E+00 1.43544601E-03 7.20311898E-03 0.00000000E+00
 4 10 0.00000000E+00 0.00000000E+00-4.56286519E-04-2.28966194E-03 0.00000000E+00
 5  1 0.00000000E+00 0.00000000E+00 0.00000000E+00 0.00000000E+00 0.00000000E+00
 5  2 2.12770924E-01-4.24012394E-02 0.00000000E+00 2.38507634E-01-4.75300813E-02
 5  3 0.00000000E+00 7.00658902E-01-1.39628129E-01 0.00000000E+00 0.00000000E+00
 5  4 0.00000000E+00 2.44751511E-03-4.87743684E-04 0.00000000E+00 0.00000000E+00
 5  5 0.00000000E+00 0.00000000E+00 4.02231886E-02-8.01572423E-03 0.00000000E+00
 5  6 0.00000000E+00 9.68995495E-04-1.93102560E-04-1.73339184E-03 3.45432360E-04
 5  7 0.00000000E+00-8.63580900E-05 0.00000000E+00 4.33347959E-04 0.00000000E+00
 5  8 0.00000000E+00 0.00000000E+00 0.00000000E+00 0.00000000E+00 7.67394060E-03
 5  9-1.52927189E-03 0.00000000E+00 7.20311898E-03-1.43544601E-03 0.00000000E+00
 5 10 0.00000000E+00 0.00000000E+00-2.28966194E-03 4.56286519E-04 0.00000000E+00
 6  1-5.78697399E-02-3.11092077E-01-4.21166366E-02-2.60781914E+00-9.80102804E-02
 6  2 0.00000000E+00 0.00000000E+00-3.65138731E-01 0.00000000E+00 0.00000000E+00
 6  3-2.09326577E+00 0.00000000E+00 0.00000000E+00 1.69823268E-02-8.49116339E-03
 6  4-8.49116339E-03 0.00000000E+00 0.00000000E+00 0.00000000E+00-2.12803471E-01
 6  5 1.06401736E-01 1.06401736E-01 0.00000000E+00 0.00000000E+00 0.00000000E+00
 6  6-8.54072032E-03 0.00000000E+00 0.00000000E+00 0.00000000E+00 0.00000000E+00
 6  7 5.72928936E-03 0.00000000E+00 5.72928936E-03 0.00000000E+00 0.00000000E+00
 6  8 5.67818269E-02 6.83057589E-02 3.78844848E+00 2.69890396E-02 0.00000000E+00
 6  9 0.00000000E+00-1.61602026E-01 0.00000000E+00 0.00000000E+00 6.38282222E-03
 6 10-3.19141111E-03-3.19141111E-03 0.00000000E+00 0.00000000E+00 0.00000000E+00
 7  1-1.26743688E-01-3.65546363E-01-7.86488435E-02 1.10951977E+00-1.29515080E-01
 7  2 0.00000000E+00 0.00000000E+00-3.49363966E-01 0.00000000E+00 0.00000000E+00
 7  3 1.39954662E+00 0.00000000E+00 0.00000000E+00-1.70757769E-02 8.53788843E-03
 7  4 8.53788843E-03 0.00000000E+00 0.00000000E+00 0.00000000E+00 1.76840390E-01
 7  5-8.84201949E-02-8.84201949E-02 0.00000000E+00 0.00000000E+00 0.00000000E+00
 7  6 4.61346920E-02 0.00000000E+00 0.00000000E+00 0.00000000E+00 0.00000000E+00
 7  7-3.09480923E-02 0.00000000E+00-3.09480923E-02 0.00000000E+00 0.00000000E+00
 7  8-2.88690309E-02-7.17123726E-01-2.47950505E-01 1.66328192E-02 0.00000000E+00
 7  9 0.00000000E+00 6.49487786E-02 0.00000000E+00 0.00000000E+00 2.69094998E-03
 7 10-1.34547499E-03-1.34547499E-03 0.00000000E+00 0.00000000E+00 0.00000000E+00
 8  1 0.00000000E+00 0.00000000E+00 0.00000000E+00 0.00000000E+00 0.00000000E+00
 8  2-2.33045669E-02-2.45321832E-01 0.00000000E+00-9.73040191E-02-1.02429710E+00
 8  3 0.00000000E+00 1.06385758E-01 1.11989848E+00 0.00000000E+00 0.00000000E+00
 8  4 0.00000000E+00-1.48776110E-03-1.56613199E-02 0.00000000E+00 0.00000000E+00
 8  5 0.00000000E+00 0.00000000E+00 8.80155427E-04 9.26519434E-03 0.00000000E+00
 8  6 0.00000000E+00-5.87529953E-04-6.18479309E-03 1.05100553E-03 1.10636942E-02
 8  7 0.00000000E+00-2.76592355E-03 0.00000000E+00-2.62751383E-04 0.00000000E+00
 8  8 0.00000000E+00 0.00000000E+00 0.00000000E+00 0.00000000E+00 3.99081696E-04
 8  9 4.20104149E-03 0.00000000E+00-5.79807927E-03-6.10350509E-02 0.00000000E+00
 8 10 0.00000000E+00 0.00000000E+00-2.03273627E-04-2.13981486E-03 0.00000000E+00
 9  1 0.00000000E+00 0.00000000E+00 0.00000000E+00 0.00000000E+00 0.00000000E+00
 9  2-2.45321832E-01 2.33045669E-02 0.00000000E+00-1.02429710E+00 9.73040191E-02
 9  3 0.00000000E+00 1.11989848E+00-1.06385758E-01 0.00000000E+00 0.00000000E+00
 9  4 0.00000000E+00-1.56613199E-02 1.48776110E-03 0.00000000E+00 0.00000000E+00
 9  5 0.00000000E+00 0.00000000E+00 9.26519434E-03-8.80155427E-04 0.00000000E+00
 9  6 0.00000000E+00-6.18479309E-03 5.87529953E-04 1.10636942E-02-1.05100553E-03
 9  7 0.00000000E+00 2.62751383E-04 0.00000000E+00-2.76592355E-03 0.00000000E+00
 9  8 0.00000000E+00 0.00000000E+00 0.00000000E+00 0.00000000E+00 4.20104149E-03
 9  9-3.99081696E-04 0.00000000E+00-6.10350509E-02 5.79807927E-03 0.00000000E+00
 9 10 0.00000000E+00 0.00000000E+00-2.13981486E-03 2.03273627E-04 0.00000000E+00
10  1-1.91951826E-01-7.33738682E-01-1.73636616E-01 2.94928349E+00 1.06507338E-01
10  2 0.00000000E+00 0.00000000E+00 1.42840477E+00 0.00000000E+00 0.00000000E+00
10  3 2.79600746E-01 0.00000000E+00 0.00000000E+00 1.29071125E-01-6.45355625E-02
10  4-6.45355625E-02 0.00000000E+00 0.00000000E+00 0.00000000E+00 4.22699255E-01
10  5-2.11349628E-01-2.11349628E-01 0.00000000E+00 0.00000000E+00 0.00000000E+00
10  6 1.23347882E-01 0.00000000E+00 0.00000000E+00 0.00000000E+00 0.00000000E+00
10  7-8.27442746E-02 0.00000000E+00-8.27442746E-02 0.00000000E+00 0.00000000E+00
10  8 3.07603535E-02-1.22470883E+00-1.57201130E+00-7.42123968E-03 0.00000000E+00
10  9 0.00000000E+00 5.79600063E-01 0.00000000E+00 0.00000000E+00-5.29273586E-02
10 10 2.64636793E-02 2.64636793E-02 0.00000000E+00 0.00000000E+00 0.00000000E+00
11  1 0.00000000E+00 0.00000000E+00 0.00000000E+00 0.00000000E+00 0.00000000E+00
11  2 3.97288614E-03-4.13124284E-02 0.00000000E+00 2.91898494E-03-3.03533381E-02
11  3 0.00000000E+00 1.21185852E-03-1.26016243E-02 0.00000000E+00 0.00000000E+00
11  4 0.00000000E+00 4.03144631E-03-4.19213717E-02 0.00000000E+00 0.00000000E+00
11  5 0.00000000E+00 0.00000000E+00-9.57322455E-02 9.95480715E-01 0.00000000E+00
11  6 0.00000000E+00 2.47129888E-03-2.56980327E-02-4.42079382E-03 4.59700383E-02
11  7 0.00000000E+00-1.14925096E-02 0.00000000E+00 1.10519846E-03 0.00000000E+00
11  8 0.00000000E+00 0.00000000E+00 0.00000000E+00 0.00000000E+00-1.88461241E-05
11  9 1.95973185E-04 0.00000000E+00-3.39824877E-03 3.53370079E-02 0.00000000E+00
11 10 0.00000000E+00 0.00000000E+00-1.92677562E-03 2.00357566E-02 0.00000000E+00
12  1 0.00000000E+00 0.00000000E+00 0.00000000E+00 0.00000000E+00 0.00000000E+00
12  2-4.13124284E-02-3.97288614E-03 0.00000000E+00-3.03533381E-02-2.91898494E-03
12  3 0.00000000E+00-1.26016243E-02-1.21185852E-03 0.00000000E+00 0.00000000E+00
12  4 0.00000000E+00-4.19213717E-02-4.03144631E-03 0.00000000E+00 0.00000000E+00
12  5 0.00000000E+00 0.00000000E+00 9.95480715E-01 9.57322455E-02 0.00000000E+00
12  6 0.00000000E+00-2.56980327E-02-2.47129888E-03 4.59700383E-02 4.42079382E-03
12  7 0.00000000E+00-1.10519846E-03 0.00000000E+00-1.14925096E-02 0.00000000E+00
12  8 0.00000000E+00 0.00000000E+00 0.00000000E+00 0.00000000E+00 1.95973185E-04
12  9 1.88461241E-05 0.00000000E+00 3.53370079E-02 3.39824877E-03 0.00000000E+00
12 10 0.00000000E+00 0.00000000E+00 2.00357566E-02 1.92677562E-03 0.00000000E+00
13  1 0.00000000E+00 0.00000000E+00 0.00000000E+00 0.00000000E+00 0.00000000E+00
13  2 0.00000000E+00 0.00000000E+00 0.00000000E+00 0.00000000E+00 0.00000000E+00
13  3 0.00000000E+00 0.00000000E+00 0.00000000E+00 0.00000000E+00-7.08455942E-03
13  4 7.08455942E-03 0.00000000E+00 0.00000000E+00-5.59095630E-02 0.00000000E+00
13  5 1.29193597E-01-1.29193597E-01 0.00000000E+00 0.00000000E+00 1.01956341E+00
13  6 0.00000000E+00 0.00000000E+00 0.00000000E+00 0.00000000E+00 0.00000000E+00
13  7 2.01471276E-03 0.00000000E+00-2.01471276E-03 0.00000000E+00 1.58996069E-02
13  8 0.00000000E+00 0.00000000E+00 0.00000000E+00 0.00000000E+00 0.00000000E+00
13  9 0.00000000E+00 0.00000000E+00 0.00000000E+00 0.00000000E+00 0.00000000E+00
13 10-4.96951383E-04 4.96951383E-04 0.00000000E+00 0.00000000E+00-3.92181546E-03
14  1 0.00000000E+00 0.00000000E+00 0.00000000E+00 0.00000000E+00 0.00000000E+00
14  2 0.00000000E+00 0.00000000E+00 0.00000000E+00 0.00000000E+00 0.00000000E+00
14  3 0.00000000E+00 0.00000000E+00 0.00000000E+00 0.00000000E+00 4.84191019E-02
14  4-4.84191019E-02 0.00000000E+00 0.00000000E+00-8.18054458E-03 0.00000000E+00
14  5-8.82967815E-01 8.82967815E-01 0.00000000E+00 0.00000000E+00 1.49179916E-01
14  6 0.00000000E+00 0.00000000E+00 0.00000000E+00 0.00000000E+00 0.00000000E+00
14  7-1.37694635E-02 0.00000000E+00 1.37694635E-02 0.00000000E+00 2.32638991E-03
14  8 0.00000000E+00 0.00000000E+00 0.00000000E+00 0.00000000E+00 0.00000000E+00
14  9 0.00000000E+00 0.00000000E+00 0.00000000E+00 0.00000000E+00 0.00000000E+00
14 10 3.39639182E-03-3.39639182E-03 0.00000000E+00 0.00000000E+00-5.73830029E-04
15  1-2.48263278E-02 1.34994282E-01 1.01086565E-01-3.66491387E+00 2.16019227E-01
15  2 0.00000000E+00 0.00000000E+00-5.50760904E-01 0.00000000E+00 0.00000000E+00
15  3-2.08010831E+00 0.00000000E+00 0.00000000E+00-9.59248327E-02 4.79624164E-02
15  4 4.79624164E-02 0.00000000E+00 0.00000000E+00 0.00000000E+00-1.25768484E+00
15  5 6.28842418E-01 6.28842418E-01 0.00000000E+00 0.00000000E+00 0.00000000E+00
15  6-1.46448335E-01 0.00000000E+00 0.00000000E+00 0.00000000E+00 0.00000000E+00
15  7 9.82405300E-02 0.00000000E+00 9.82405300E-02 0.00000000E+00 0.00000000E+00
15  8-1.48301209E-01 3.33431398E-01 4.19712341E+00 2.32582002E-02 0.00000000E+00
15  9 0.00000000E+00-7.62732751E-01 0.00000000E+00 0.00000000E+00 3.82144077E-02
15 10-1.91072039E-02-1.91072039E-02 0.00000000E+00 0.00000000E+00 0.00000000E+00
16  1-1.54269663E-01-5.18785922E-01-4.90695803E-02-1.33281219E+00-1.53399424E-01
16  2 0.00000000E+00 0.00000000E+00-1.26137896E+00 0.00000000E+00 0.00000000E+00
16  3-7.65625445E-01 0.00000000E+00 0.00000000E+00 6.12198406E-03-3.06099203E-03
16  4-3.06099203E-03 0.00000000E+00 0.00000000E+00 0.00000000E+00-1.77969133E+00
16  5 8.89845664E-01 8.89845664E-01 0.00000000E+00 0.00000000E+00 0.00000000E+00
16  6-1.32038196E-01 0.00000000E+00 0.00000000E+00 0.00000000E+00 0.00000000E+00
16  7 8.85739147E-02 0.00000000E+00 8.85739147E-02 0.00000000E+00 0.00000000E+00
16  8 1.02715643E-02 2.70285888E+00 5.27019726E-01-3.04991062E-02 0.00000000E+00
16  9 0.00000000E+00-9.49504285E-02 0.00000000E+00 0.00000000E+00 1.70209025E-02
16 10-8.51045124E-03-8.51045124E-03 0.00000000E+00 0.00000000E+00 0.00000000E+00
17  1 0.00000000E+00 0.00000000E+00 0.00000000E+00 0.00000000E+00 0.00000000E+00
17  2 4.43497367E-02-1.01750347E-01 0.00000000E+00 1.64706612E-01-3.77881723E-01
17  3 0.00000000E+00 7.13121097E-02-1.63609357E-01 0.00000000E+00 0.00000000E+00
17  4 0.00000000E+00-1.30895796E-02 3.00310523E-02 0.00000000E+00 0.00000000E+00
17  5 0.00000000E+00 0.00000000E+00 3.79625540E-01-8.70964141E-01 0.00000000E+00
17  6 0.00000000E+00-1.18511805E-02 2.71898283E-02 2.12000362E-02-4.86386435E-02
17  7 0.00000000E+00 1.21596609E-02 0.00000000E+00-5.30000905E-03 0.00000000E+00
17  8 0.00000000E+00 0.00000000E+00 0.00000000E+00 0.00000000E+00 4.72974293E-02
17  9-1.08513154E-01 0.00000000E+00-6.20189951E-01 1.42288427E+00 0.00000000E+00
17 10 0.00000000E+00 0.00000000E+00 9.33393389E-03-2.14145806E-02 0.00000000E+00
18  1 0.00000000E+00 0.00000000E+00 0.00000000E+00 0.00000000E+00 0.00000000E+00
18  2-1.01750347E-01-4.43497367E-02 0.00000000E+00-3.77881723E-01-1.64706612E-01
18  3 0.00000000E+00-1.63609357E-01-7.13121097E-02 0.00000000E+00 0.00000000E+00
18  4 0.00000000E+00 3.00310523E-02 1.30895796E-02 0.00000000E+00 0.00000000E+00
18  5 0.00000000E+00 0.00000000E+00-8.70964141E-01-3.79625540E-01 0.00000000E+00
18  6 0.00000000E+00 2.71898283E-02 1.18511805E-02-4.86386435E-02-2.12000362E-02
18  7 0.00000000E+00 5.30000905E-03 0.00000000E+00 1.21596609E-02 0.00000000E+00
18  8 0.00000000E+00 0.00000000E+00 0.00000000E+00 0.00000000E+00-1.08513154E-01
18  9-4.72974293E-02 0.00000000E+00 1.42288427E+00 6.20189951E-01 0.00000000E+00
18 10 0.00000000E+00 0.00000000E+00-2.14145806E-02-9.33393389E-03 0.00000000E+00
19  1 5.74530172E-01 1.64753439E+00 5.46568381E-01 2.07570839E+00-6.07881487E-01
19  2 0.00000000E+00 0.00000000E+00 3.70458294E+00 0.00000000E+00 0.00000000E+00
19  3 3.72356278E-01 0.00000000E+00 0.00000000E+00 6.43821735E-02-3.21910868E-02
19  4-3.21910868E-02 0.00000000E+00 0.00000000E+00 0.00000000E+00 1.50307594E+00
19  5-7.51537968E-01-7.51537968E-01 0.00000000E+00 0.00000000E+00 0.00000000E+00
19  6 1.32270695E-01 0.00000000E+00 0.00000000E+00 0.00000000E+00 0.00000000E+00
19  7-8.87298799E-02 0.00000000E+00-8.87298799E-02 0.00000000E+00 0.00000000E+00
19  8-1.05356638E-01-3.21398858E+00-2.03882428E+00-6.19744594E-02 0.00000000E+00
19  9 0.00000000E+00 2.20812090E+00 0.00000000E+00 0.00000000E+00-1.17865355E-01
19 10 5.89326775E-02 5.89326775E-02 0.00000000E+00 0.00000000E+00 0.00000000E+00
20  1 0.00000000E+00 0.00000000E+00 0.00000000E+00 0.00000000E+00 0.00000000E+00
20  2 4.86117541E-02-1.29419595E+00 0.00000000E+00-5.64925261E-02 1.50400660E+00
20  3 0.00000000E+00 2.14851734E-02-5.72002082E-01 0.00000000E+00 0.00000000E+00
20  4 0.00000000E+00 1.38308628E-03-3.68220548E-02 0.00000000E+00 0.00000000E+00
20  5 0.00000000E+00 0.00000000E+00-5.09072026E-03 1.35530793E-01 0.00000000E+00
20  6 0.00000000E+00-1.10269628E-03 2.93572017E-02 1.97256308E-03-5.25157589E-02
20  7 0.00000000E+00 1.31289397E-02 0.00000000E+00-4.93140770E-04 0.00000000E+00
20  8 0.00000000E+00 0.00000000E+00 0.00000000E+00 0.00000000E+00-2.84605754E-04
20  9 7.57708958E-03 0.00000000E+00 8.03891191E-03-2.14020816E-01 0.00000000E+00
20 10 0.00000000E+00 0.00000000E+00-1.28552783E-03 3.42247456E-02 0.00000000E+00
21  1 0.00000000E+00 0.00000000E+00 0.00000000E+00 0.00000000E+00 0.00000000E+00
21  2-1.29419595E+00-4.86117541E-02 0.00000000E+00 1.50400660E+00 5.64925261E-02
21  3 0.00000000E+00-5.72002082E-01-2.14851734E-02 0.00000000E+00 0.00000000E+00
21  4 0.00000000E+00-3.68220548E-02-1.38308628E-03 0.00000000E+00 0.00000000E+00
21  5 0.00000000E+00 0.00000000E+00 1.35530793E-01 5.09072026E-03 0.00000000E+00
21  6 0.00000000E+00 2.93572017E-02 1.10269628E-03-5.25157589E-02-1.97256308E-03
21  7 0.00000000E+00 4.93140770E-04 0.00000000E+00 1.31289397E-02 0.00000000E+00
21  8 0.00000000E+00 0.00000000E+00 0.00000000E+00 0.00000000E+00 7.57708958E-03
21  9 2.84605754E-04 0.00000000E+00-2.14020816E-01-8.03891191E-03 0.00000000E+00
21 10 0.00000000E+00 0.00000000E+00 3.42247456E-02 1.28552783E-03 0.00000000E+00
22  1-1.45980443E-01-4.77442706E-01-2.80431118E-01-1.37296244E+00-1.07581362E+00
22  2 0.00000000E+00 0.00000000E+00 1.89265410E-01 0.00000000E+00 0.00000000E+00
22  3-1.00814423E+00 0.00000000E+00 0.00000000E+00 1.62769135E-01-8.13845675E-02
22  4-8.13845675E-02 0.00000000E+00 0.00000000E+00 0.00000000E+00-4.78328372E-01
22  5 2.39164186E-01 2.39164186E-01 0.00000000E+00 0.00000000E+00 0.00000000E+00
22  6-5.37982599E-02 0.00000000E+00 0.00000000E+00 0.00000000E+00 0.00000000E+00
22  7 3.60889699E-02 0.00000000E+00 3.60889699E-02 0.00000000E+00 0.00000000E+00
22  8 1.64958193E-01 3.42024632E-01 1.82902353E+00 1.20555748E-01 0.00000000E+00
22  9 0.00000000E+00-1.21323445E+00 0.00000000E+00 0.00000000E+00-9.45246369E-02
22 10 4.72623185E-02 4.72623185E-02 0.00000000E+00 0.00000000E+00 0.00000000E+00
23  1 0.00000000E+00 0.00000000E+00 0.00000000E+00 0.00000000E+00 0.00000000E+00
23  2 0.00000000E+00 0.00000000E+00 0.00000000E+00 0.00000000E+00 0.00000000E+00
23  3 0.00000000E+00 0.00000000E+00 0.00000000E+00 0.00000000E+00 0.00000000E+00
23  4 0.00000000E+00 0.00000000E+00 0.00000000E+00 0.00000000E+00 0.00000000E+00
23  5 0.00000000E+00 0.00000000E+00 0.00000000E+00 0.00000000E+00 0.00000000E+00
23  6 0.00000000E+00-2.37809651E-01-7.53953958E-01 0.00000000E+00 0.00000000E+00
23  7 0.00000000E+00 1.01153538E+00 0.00000000E+00 3.19055127E-01 0.00000000E+00
23  8 0.00000000E+00 0.00000000E+00 0.00000000E+00 0.00000000E+00 0.00000000E+00
23  9 0.00000000E+00 0.00000000E+00 0.00000000E+00 0.00000000E+00 0.00000000E+00
23 10 0.00000000E+00 0.00000000E+00 0.00000000E+00 0.00000000E+00 0.00000000E+00
24  1 0.00000000E+00 0.00000000E+00 0.00000000E+00 0.00000000E+00 0.00000000E+00
24  2 0.00000000E+00 0.00000000E+00 0.00000000E+00 0.00000000E+00 0.00000000E+00
24  3 0.00000000E+00 0.00000000E+00 0.00000000E+00 0.00000000E+00 0.00000000E+00
24  4 0.00000000E+00 0.00000000E+00 0.00000000E+00 0.00000000E+00 0.00000000E+00
24  5 0.00000000E+00 0.00000000E+00 0.00000000E+00 0.00000000E+00 0.00000000E+00
24  6 0.00000000E+00-7.53953958E-01 2.37809651E-01 0.00000000E+00 0.00000000E+00
24  7 0.00000000E+00-3.19055127E-01 0.00000000E+00 1.01153538E+00 0.00000000E+00
24  8 0.00000000E+00 0.00000000E+00 0.00000000E+00 0.00000000E+00 0.00000000E+00
24  9 0.00000000E+00 0.00000000E+00 0.00000000E+00 0.00000000E+00 0.00000000E+00
24 10 0.00000000E+00 0.00000000E+00 0.00000000E+00 0.00000000E+00 0.00000000E+00
25  1 0.00000000E+00 0.00000000E+00 0.00000000E+00 0.00000000E+00 0.00000000E+00
25  2 0.00000000E+00 0.00000000E+00 0.00000000E+00 0.00000000E+00 0.00000000E+00
25  3 0.00000000E+00 0.00000000E+00 0.00000000E+00 0.00000000E+00 1.67789143E-01
25  4-1.67789143E-01 0.00000000E+00 0.00000000E+00-1.36555260E-02 0.00000000E+00
25  5-1.07244097E-01 1.07244097E-01 0.00000000E+00 0.00000000E+00 8.72806509E-03
25  6 0.00000000E+00 0.00000000E+00 0.00000000E+00 0.00000000E+00 0.00000000E+00
25  7 8.30998663E-01 0.00000000E+00-8.30998663E-01 0.00000000E+00-6.76308589E-02
25  8 0.00000000E+00 0.00000000E+00 0.00000000E+00 0.00000000E+00 0.00000000E+00
25  9 0.00000000E+00 0.00000000E+00 0.00000000E+00 0.00000000E+00 0.00000000E+00
25 10 6.87078667E-02-6.87078667E-02 0.00000000E+00 0.00000000E+00-5.59179244E-03
26  1 0.00000000E+00 0.00000000E+00 0.00000000E+00 0.00000000E+00 0.00000000E+00
26  2 0.00000000E+00 0.00000000E+00 0.00000000E+00 0.00000000E+00 0.00000000E+00
26  3 0.00000000E+00 0.00000000E+00 0.00000000E+00 0.00000000E+00 1.18260324E-02
26  4-1.18260324E-02 0.00000000E+00 0.00000000E+00 1.93746214E-01 0.00000000E+00
26  5-7.55872609E-03 7.55872609E-03 0.00000000E+00 0.00000000E+00-1.23834817E-01
26  6 0.00000000E+00 0.00000000E+00 0.00000000E+00 0.00000000E+00 0.00000000E+00
26  7 5.85700419E-02 0.00000000E+00-5.85700419E-02 0.00000000E+00 9.59554604E-01
26  8 0.00000000E+00 0.00000000E+00 0.00000000E+00 0.00000000E+00 0.00000000E+00
26  9 0.00000000E+00 0.00000000E+00 0.00000000E+00 0.00000000E+00 0.00000000E+00
26 10 4.84263430E-03-4.84263430E-03 0.00000000E+00 0.00000000E+00 7.93370107E-02
27  1 0.00000000E+00 0.00000000E+00 0.00000000E+00 0.00000000E+00 0.00000000E+00
27  2 4.73806225E-03-6.05822790E-02 0.00000000E+00-2.42138997E-03 3.09606154E-02
27  3 0.00000000E+00-5.45763325E-04 6.97829287E-03 0.00000000E+00 0.00000000E+00
27  4 0.00000000E+00-8.89142148E-02 1.13688371E+00 0.00000000E+00 0.00000000E+00
27  5 0.00000000E+00 0.00000000E+00 4.50301689E-02-5.75769188E-01 0.00000000E+00
27  6 0.00000000E+00-2.66947420E-03 3.41326944E-02 4.77530062E-03-6.10584200E-02
27  7 0.00000000E+00 1.52646050E-02 0.00000000E+00-1.19382516E-03 0.00000000E+00
27  8 0.00000000E+00 0.00000000E+00 0.00000000E+00 0.00000000E+00-6.76953443E-03
27  9 8.65572890E-02 0.00000000E+00 5.56564861E-03-7.11640454E-02 0.00000000E+00
27 10 0.00000000E+00 0.00000000E+00 8.63583775E-03-1.10420401E-01 0.00000000E+00
28  1 0.00000000E+00 0.00000000E+00 0.00000000E+00 0.00000000E+00 0.00000000E+00
28  2-6.05822790E-02-4.73806225E-03 0.00000000E+00 3.09606154E-02 2.42138997E-03
28  3 0.00000000E+00 6.97829287E-03 5.45763325E-04 0.00000000E+00 0.00000000E+00
28  4 0.00000000E+00 1.13688371E+00 8.89142148E-02 0.00000000E+00 0.00000000E+00
28  5 0.00000000E+00 0.00000000E+00-5.75769188E-01-4.50301689E-02 0.00000000E+00
28  6 0.00000000E+00 3.41326944E-02 2.66947420E-03-6.10584200E-02-4.77530062E-03
28  7 0.00000000E+00 1.19382516E-03 0.00000000E+00 1.52646050E-02 0.00000000E+00
28  8 0.00000000E+00 0.00000000E+00 0.00000000E+00 0.00000000E+00 8.65572890E-02
28  9 6.76953443E-03 0.00000000E+00-7.11640454E-02-5.56564861E-03 0.00000000E+00
28 10 0.00000000E+00 0.00000000E+00-1.10420401E-01-8.63583775E-03 0.00000000E+00
29  1 0.00000000E+00 0.00000000E+00 0.00000000E+00 0.00000000E+00 0.00000000E+00
29  2 0.00000000E+00 0.00000000E+00 0.00000000E+00 0.00000000E+00 0.00000000E+00
29  3 0.00000000E+00 0.00000000E+00 0.00000000E+00 0.00000000E+00-3.63386291E-02
29  4 3.63386291E-02 0.00000000E+00 0.00000000E+00 1.17898746E+00 0.00000000E+00
29  5 1.85796122E-02-1.85796122E-02 0.00000000E+00 0.00000000E+00-6.02805616E-01
29  6 0.00000000E+00 0.00000000E+00 0.00000000E+00 0.00000000E+00 0.00000000E+00
29  7 5.23316403E-03 0.00000000E+00-5.23316403E-03 0.00000000E+00-1.69787218E-01
29  8 0.00000000E+00 0.00000000E+00 0.00000000E+00 0.00000000E+00 0.00000000E+00
29  9 0.00000000E+00 0.00000000E+00 0.00000000E+00 0.00000000E+00 0.00000000E+00
29 10-5.21621305E-04 5.21621305E-04 0.00000000E+00 0.00000000E+00 1.69237253E-02
30  1 0.00000000E+00 0.00000000E+00 0.00000000E+00 0.00000000E+00 0.00000000E+00
30  2 0.00000000E+00 0.00000000E+00 0.00000000E+00 0.00000000E+00 0.00000000E+00
30  3 0.00000000E+00 0.00000000E+00 0.00000000E+00 0.00000000E+00 1.02103309E+00
30  4-1.02103309E+00 0.00000000E+00 0.00000000E+00 4.19602346E-02 0.00000000E+00
30  5-5.22044977E-01 5.22044977E-01 0.00000000E+00 0.00000000E+00-2.14538882E-02
30  6 0.00000000E+00 0.00000000E+00 0.00000000E+00 0.00000000E+00 0.00000000E+00
30  7-1.47040044E-01 0.00000000E+00 1.47040044E-01 0.00000000E+00-6.04273733E-03
30  8 0.00000000E+00 0.00000000E+00 0.00000000E+00 0.00000000E+00 0.00000000E+00
30  9 0.00000000E+00 0.00000000E+00 0.00000000E+00 0.00000000E+00 0.00000000E+00
30 10 1.46563760E-02-1.46563760E-02 0.00000000E+00 0.00000000E+00 6.02316402E-04
31  1 2.05723539E-01-3.00161240E-01-1.01432173E+00-1.73374921E+00 8.26218376E-02
31  2 0.00000000E+00 0.00000000E+00-2.33118131E+00 0.00000000E+00 0.00000000E+00
31  3-4.56843227E-01 0.00000000E+00 0.00000000E+00-3.14594129E-01 1.57297065E-01
31  4 1.57297065E-01 0.00000000E+00 0.00000000E+00 0.00000000E+00-1.18098325E+00
31  5 5.90491627E-01 5.90491627E-01 0.00000000E+00 0.00000000E+00 0.00000000E+00
31  6-1.12257401E+00 0.00000000E+00 0.00000000E+00 0.00000000E+00 0.00000000E+00
31  7 7.53045541E-01 0.00000000E+00 7.53045541E-01 0.00000000E+00 0.00000000E+00
31  8-4.74593633E-01 3.62535951E+00 6.84022417E-01-5.35014429E-02 0.00000000E+00
31  9 0.00000000E+00-1.17948457E+00 0.00000000E+00 0.00000000E+00 9.61030893E-02
31 10-4.80515446E-02-4.80515446E-02 0.00000000E+00 0.00000000E+00 0.00000000E+00
32  1 0.00000000E+00 0.00000000E+00 0.00000000E+00 0.00000000E+00 0.00000000E+00
32  2-4.77088615E-02-1.43067826E-01 0.00000000E+00 1.64488973E-01 4.93264336E-01
32  3 0.00000000E+00 9.13925657E-03 2.74065139E-02 0.00000000E+00 0.00000000E+00
32  4 0.00000000E+00 6.18177231E-03 1.85377035E-02 0.00000000E+00 0.00000000E+00
32  5 0.00000000E+00 0.00000000E+00 1.78480860E-01 5.35222763E-01 0.00000000E+00
32  6 0.00000000E+00-2.40082153E-01-7.19950775E-01 4.29472012E-01 1.28788710E+00
32  7 0.00000000E+00-3.21971775E-01 0.00000000E+00-1.07368003E-01 0.00000000E+00
32  8 0.00000000E+00 0.00000000E+00 0.00000000E+00 0.00000000E+00 2.53825926E-02
32  9 7.61165168E-02 0.00000000E+00-3.34610116E-01-1.00341824E+00 0.00000000E+00
32 10 0.00000000E+00 0.00000000E+00 1.64862417E-02 4.94384207E-02 0.00000000E+00
33  1 0.00000000E+00 0.00000000E+00 0.00000000E+00 0.00000000E+00 0.00000000E+00
33  2-1.43067826E-01 4.77088615E-02 0.00000000E+00 4.93264336E-01-1.64488973E-01
33  3 0.00000000E+00 2.74065139E-02-9.13925657E-03 0.00000000E+00 0.00000000E+00
33  4 0.00000000E+00 1.85377035E-02-6.18177231E-03 0.00000000E+00 0.00000000E+00
33  5 0.00000000E+00 0.00000000E+00 5.35222763E-01-1.78480860E-01 0.00000000E+00
33  6 0.00000000E+00-7.19950775E-01 2.40082153E-01 1.28788710E+00-4.29472012E-01
33  7 0.00000000E+00 1.07368003E-01 0.00000000E+00-3.21971775E-01 0.00000000E+00
33  8 0.00000000E+00 0.00000000E+00 0.00000000E+00 0.00000000E+00 7.61165168E-02
33  9-2.53825926E-02 0.00000000E+00-1.00341824E+00 3.34610116E-01 0.00000000E+00
33 10 0.00000000E+00 0.00000000E+00 4.94384207E-02-1.64862417E-02 0.00000000E+00
34  1-2.72429235E-01-4.40675579E-02 8.60230029E-01 1.47765201E-01 1.46256778E-01
34  2 0.00000000E+00 0.00000000E+00 7.12143683E-01 0.00000000E+00 0.00000000E+00
34  3-2.73104304E-01 0.00000000E+00 0.00000000E+00 1.20044393E+00-6.00221964E-01
34  4-6.00221964E-01 0.00000000E+00 0.00000000E+00 0.00000000E+00-5.30738406E-01
34  5 2.65369203E-01 2.65369203E-01 0.00000000E+00 0.00000000E+00 0.00000000E+00
34  6-2.80842903E-01 0.00000000E+00 0.00000000E+00 0.00000000E+00 0.00000000E+00
34  7 1.88395147E-01 0.00000000E+00 1.88395147E-01 0.00000000E+00 0.00000000E+00
34  8 9.84860792E-02-7.50143741E-01 5.38702726E-02-1.91244790E-01 0.00000000E+00
34  9 0.00000000E+00 1.04643345E+00 0.00000000E+00 0.00000000E+00 5.89512321E-03
34 10-2.94756160E-03-2.94756160E-03 0.00000000E+00 0.00000000E+00 0.00000000E+00
35  1-4.54643569E-02-7.62906378E-02 9.38926091E-02-4.15520033E-01 3.90677122E-02
35  2 0.00000000E+00 0.00000000E+00-1.59779968E-01 0.00000000E+00 0.00000000E+00
35  3-1.67607335E-01 0.00000000E+00 0.00000000E+00-3.20666016E-01 1.60333008E-01
35  4 1.60333008E-01 0.00000000E+00 0.00000000E+00 0.00000000E+00-3.83767274E-02
35  5 1.91883637E-02 1.91883637E-02 0.00000000E+00 0.00000000E+00 0.00000000E+00
35  6-6.23692054E-01 0.00000000E+00 0.00000000E+00 0.00000000E+00 0.00000000E+00
35  7 4.18385349E-01 0.00000000E+00 4.18385349E-01 0.00000000E+00 0.00000000E+00
35  8 1.49277815E+00-1.24581444E+00 8.91493431E-01 1.33480926E-01 0.00000000E+00
35  9 0.00000000E+00-1.24148315E-01 0.00000000E+00 0.00000000E+00 2.73383424E-01
35 10-1.36691712E-01-1.36691712E-01 0.00000000E+00 0.00000000E+00 0.00000000E+00
36  1 0.00000000E+00 0.00000000E+00 0.00000000E+00 0.00000000E+00 0.00000000E+00
36  2 0.00000000E+00 0.00000000E+00 0.00000000E+00 0.00000000E+00 0.00000000E+00
36  3 0.00000000E+00 0.00000000E+00 0.00000000E+00 0.00000000E+00-5.77730772E-02
36  4 5.77730772E-02 0.00000000E+00 0.00000000E+00-8.08250185E-03 0.00000000E+00
36  5-8.27094959E-02 8.27094959E-02 0.00000000E+00 0.00000000E+00-1.15711277E-02
36  6 0.00000000E+00 0.00000000E+00 0.00000000E+00 0.00000000E+00 0.00000000E+00
36  7-3.05661661E-01 0.00000000E+00 3.05661661E-01 0.00000000E+00-4.27623222E-02
36  8 0.00000000E+00 0.00000000E+00 0.00000000E+00 0.00000000E+00 0.00000000E+00
36  9 0.00000000E+00 0.00000000E+00 0.00000000E+00 0.00000000E+00 0.00000000E+00
36 10 8.99149053E-01-8.99149053E-01 0.00000000E+00 0.00000000E+00 1.25791705E-01
37  1 0.00000000E+00 0.00000000E+00 0.00000000E+00 0.00000000E+00 0.00000000E+00
37  2 0.00000000E+00 0.00000000E+00 0.00000000E+00 0.00000000E+00 0.00000000E+00
37  3 0.00000000E+00 0.00000000E+00 0.00000000E+00 0.00000000E+00 6.99965193E-03
37  4-6.99965193E-03 0.00000000E+00 0.00000000E+00-6.67106033E-02 0.00000000E+00